(set-option :produce-models true)
(set-logic QF_LRA)
(set-info :notes | Strip-packing problem.|)
(declare-fun x0 () Real)
(declare-fun y0 () Real)
(declare-fun x1 () Real)
(declare-fun y1 () Real)
(declare-fun x2 () Real)
(declare-fun y2 () Real)
(declare-fun x3 () Real)
(declare-fun y3 () Real)
(declare-fun x4 () Real)
(declare-fun y4 () Real)
(declare-fun x5 () Real)
(declare-fun y5 () Real)
(declare-fun x6 () Real)
(declare-fun y6 () Real)
(declare-fun x7 () Real)
(declare-fun y7 () Real)
(declare-fun x8 () Real)
(declare-fun y8 () Real)
(declare-fun z () Real)
(declare-fun c () Real)
(assert (and (= c z) (and (>= x0 0) 
(and (>= y0 0) 
(and (>= x1 0) 
(and (>= y1 0) 
(and (>= x2 0) 
(and (>= y2 0) 
(and (>= x3 0) 
(and (>= y3 0) 
(and (>= x4 0) 
(and (>= y4 0) 
(and (>= x5 0) 
(and (>= y5 0) 
(and (>= x6 0) 
(and (>= y6 0) 
(and (>= x7 0) 
(and (>= y7 0) 
(and (>= x8 0) 
(and (>= y8 0) 
(and (>= z 0) 
(and (>= c 0) 
(and (<= (+ x0 0.9068886107) z) 
(and (<= 0.9796335416 y0) 
(and (<= y0 1.5) 
(and (<= x0 (- 3.0937527746 0.9068886107)) 
(and (>= x0 0) 
(and (<= (+ x1 0.9877217526) z) 
(and (<= 0.8876011389 y1) 
(and (<= y1 1.5) 
(and (<= x1 (- 3.0937527746 0.9877217526)) 
(and (>= x1 0) 
(and (<= (+ x2 0.8613090668) z) 
(and (<= 0.8875564371 y2) 
(and (<= y2 1.5) 
(and (<= x2 (- 3.0937527746 0.8613090668)) 
(and (>= x2 0) 
(and (<= (+ x3 0.3378333445) z) 
(and (<= 0.8634214757 y3) 
(and (<= y3 1.5) 
(and (<= x3 (- 3.0937527746 0.3378333445)) 
(and (>= x3 0) 
(and (<= (+ x4 0.4643382525) z) 
(and (<= 0.5522490701 y4) 
(and (<= y4 1.5) 
(and (<= x4 (- 3.0937527746 0.4643382525)) 
(and (>= x4 0) 
(and (<= (+ x5 0.6071626384) z) 
(and (<= 0.3161357265 y5) 
(and (<= y5 1.5) 
(and (<= x5 (- 3.0937527746 0.6071626384)) 
(and (>= x5 0) 
(and (<= (+ x6 0.852598779) z) 
(and (<= 0.2593448011 y6) 
(and (<= y6 1.5) 
(and (<= x6 (- 3.0937527746 0.852598779)) 
(and (>= x6 0) 
(and (<= (+ x7 0.7681976429) z) 
(and (<= 0.2424075146 y7) 
(and (<= y7 1.5) 
(and (<= x7 (- 3.0937527746 0.7681976429)) 
(and (>= x7 0) 
(and (<= (+ x8 0.5874299168) z) 
(and (<= 0.0036563084 y8) 
(and (<= y8 1.5) 
(and (<= x8 (- 3.0937527746 0.5874299168)) 
(and (>= x8 0) 
(and (<= c 3.0937527746) 
(and (or (<= (+ x0 0.9068886107) x1) (or (<= (+ x1 0.9877217526) x0) (or (>= (- y0 0.9796335416) y1) (or (>= (- y1 0.8876011389) y0))))) 
(and (or (<= (+ x0 0.9068886107) x2) (or (<= (+ x2 0.8613090668) x0) (or (>= (- y0 0.9796335416) y2) (or (>= (- y2 0.8875564371) y0))))) 
(and (or (<= (+ x0 0.9068886107) x3) (or (<= (+ x3 0.3378333445) x0) (or (>= (- y0 0.9796335416) y3) (or (>= (- y3 0.8634214757) y0))))) 
(and (or (<= (+ x0 0.9068886107) x4) (or (<= (+ x4 0.4643382525) x0) (or (>= (- y0 0.9796335416) y4) (or (>= (- y4 0.5522490701) y0))))) 
(and (or (<= (+ x0 0.9068886107) x5) (or (<= (+ x5 0.6071626384) x0) (or (>= (- y0 0.9796335416) y5) (or (>= (- y5 0.3161357265) y0))))) 
(and (or (<= (+ x0 0.9068886107) x6) (or (<= (+ x6 0.852598779) x0) (or (>= (- y0 0.9796335416) y6) (or (>= (- y6 0.2593448011) y0))))) 
(and (or (<= (+ x0 0.9068886107) x7) (or (<= (+ x7 0.7681976429) x0) (or (>= (- y0 0.9796335416) y7) (or (>= (- y7 0.2424075146) y0))))) 
(and (or (<= (+ x0 0.9068886107) x8) (or (<= (+ x8 0.5874299168) x0) (or (>= (- y0 0.9796335416) y8) (or (>= (- y8 0.0036563084) y0))))) 
(and (or (<= (+ x1 0.9877217526) x2) (or (<= (+ x2 0.8613090668) x1) (or (>= (- y1 0.8876011389) y2) (or (>= (- y2 0.8875564371) y1))))) 
(and (or (<= (+ x1 0.9877217526) x3) (or (<= (+ x3 0.3378333445) x1) (or (>= (- y1 0.8876011389) y3) (or (>= (- y3 0.8634214757) y1))))) 
(and (or (<= (+ x1 0.9877217526) x4) (or (<= (+ x4 0.4643382525) x1) (or (>= (- y1 0.8876011389) y4) (or (>= (- y4 0.5522490701) y1))))) 
(and (or (<= (+ x1 0.9877217526) x5) (or (<= (+ x5 0.6071626384) x1) (or (>= (- y1 0.8876011389) y5) (or (>= (- y5 0.3161357265) y1))))) 
(and (or (<= (+ x1 0.9877217526) x6) (or (<= (+ x6 0.852598779) x1) (or (>= (- y1 0.8876011389) y6) (or (>= (- y6 0.2593448011) y1))))) 
(and (or (<= (+ x1 0.9877217526) x7) (or (<= (+ x7 0.7681976429) x1) (or (>= (- y1 0.8876011389) y7) (or (>= (- y7 0.2424075146) y1))))) 
(and (or (<= (+ x1 0.9877217526) x8) (or (<= (+ x8 0.5874299168) x1) (or (>= (- y1 0.8876011389) y8) (or (>= (- y8 0.0036563084) y1))))) 
(and (or (<= (+ x2 0.8613090668) x3) (or (<= (+ x3 0.3378333445) x2) (or (>= (- y2 0.8875564371) y3) (or (>= (- y3 0.8634214757) y2))))) 
(and (or (<= (+ x2 0.8613090668) x4) (or (<= (+ x4 0.4643382525) x2) (or (>= (- y2 0.8875564371) y4) (or (>= (- y4 0.5522490701) y2))))) 
(and (or (<= (+ x2 0.8613090668) x5) (or (<= (+ x5 0.6071626384) x2) (or (>= (- y2 0.8875564371) y5) (or (>= (- y5 0.3161357265) y2))))) 
(and (or (<= (+ x2 0.8613090668) x6) (or (<= (+ x6 0.852598779) x2) (or (>= (- y2 0.8875564371) y6) (or (>= (- y6 0.2593448011) y2))))) 
(and (or (<= (+ x2 0.8613090668) x7) (or (<= (+ x7 0.7681976429) x2) (or (>= (- y2 0.8875564371) y7) (or (>= (- y7 0.2424075146) y2))))) 
(and (or (<= (+ x2 0.8613090668) x8) (or (<= (+ x8 0.5874299168) x2) (or (>= (- y2 0.8875564371) y8) (or (>= (- y8 0.0036563084) y2))))) 
(and (or (<= (+ x3 0.3378333445) x4) (or (<= (+ x4 0.4643382525) x3) (or (>= (- y3 0.8634214757) y4) (or (>= (- y4 0.5522490701) y3))))) 
(and (or (<= (+ x3 0.3378333445) x5) (or (<= (+ x5 0.6071626384) x3) (or (>= (- y3 0.8634214757) y5) (or (>= (- y5 0.3161357265) y3))))) 
(and (or (<= (+ x3 0.3378333445) x6) (or (<= (+ x6 0.852598779) x3) (or (>= (- y3 0.8634214757) y6) (or (>= (- y6 0.2593448011) y3))))) 
(and (or (<= (+ x3 0.3378333445) x7) (or (<= (+ x7 0.7681976429) x3) (or (>= (- y3 0.8634214757) y7) (or (>= (- y7 0.2424075146) y3))))) 
(and (or (<= (+ x3 0.3378333445) x8) (or (<= (+ x8 0.5874299168) x3) (or (>= (- y3 0.8634214757) y8) (or (>= (- y8 0.0036563084) y3))))) 
(and (or (<= (+ x4 0.4643382525) x5) (or (<= (+ x5 0.6071626384) x4) (or (>= (- y4 0.5522490701) y5) (or (>= (- y5 0.3161357265) y4))))) 
(and (or (<= (+ x4 0.4643382525) x6) (or (<= (+ x6 0.852598779) x4) (or (>= (- y4 0.5522490701) y6) (or (>= (- y6 0.2593448011) y4))))) 
(and (or (<= (+ x4 0.4643382525) x7) (or (<= (+ x7 0.7681976429) x4) (or (>= (- y4 0.5522490701) y7) (or (>= (- y7 0.2424075146) y4))))) 
(and (or (<= (+ x4 0.4643382525) x8) (or (<= (+ x8 0.5874299168) x4) (or (>= (- y4 0.5522490701) y8) (or (>= (- y8 0.0036563084) y4))))) 
(and (or (<= (+ x5 0.6071626384) x6) (or (<= (+ x6 0.852598779) x5) (or (>= (- y5 0.3161357265) y6) (or (>= (- y6 0.2593448011) y5))))) 
(and (or (<= (+ x5 0.6071626384) x7) (or (<= (+ x7 0.7681976429) x5) (or (>= (- y5 0.3161357265) y7) (or (>= (- y7 0.2424075146) y5))))) 
(and (or (<= (+ x5 0.6071626384) x8) (or (<= (+ x8 0.5874299168) x5) (or (>= (- y5 0.3161357265) y8) (or (>= (- y8 0.0036563084) y5))))) 
(and (or (<= (+ x6 0.852598779) x7) (or (<= (+ x7 0.7681976429) x6) (or (>= (- y6 0.2593448011) y7) (or (>= (- y7 0.2424075146) y6))))) 
(and (or (<= (+ x6 0.852598779) x8) (or (<= (+ x8 0.5874299168) x6) (or (>= (- y6 0.2593448011) y8) (or (>= (- y8 0.0036563084) y6))))) 
(and (or (<= (+ x7 0.7681976429) x8) (or (<= (+ x8 0.5874299168) x7) (or (>= (- y7 0.2424075146) y8) (or (>= (- y8 0.0036563084) y7))))) ))))))))))))))))))))))))))))))))))))))))))))))))))))))))))))))))))))))))))))))))))))))))))))))))))))))))
(minimize c)
(check-sat)
(get-objectives)
(exit)
